3, 80
25, 73
7, 50
9, 56
43, 5
1, 34
12, 78
2, 55
40, 40
17, 60
90, 1
6, 77
19, 51
61, 38
8, 54
18, 28
52, 47
3, 47
3, 64
9, 16
5, 67
60, 39
30, 13
47, 7
30, 48
135, 60
52, 11
82, 46
31, 45
7, 3
151, 53
66, 77
63, 59
55, 66
25, 43
49, 67
159, 60
36, 5
0, 25
92, 19
103, 13
24, 1
1, 22
33, 24
0, 8
2, 7
137, 2
8, 61
136, 8
17, 78
